p cnf 965 2478
51 -2 -1 0
-51 2 0
-51 1 0
52 -51 -3 0
-52 51 0
-52 3 0
53 -5 -698 0
-53 5 0
-53 698 0
54 -53 -699 0
-54 53 0
-54 699 0
55 -700 -701 0
-55 700 0
-55 701 0
56 -702 -703 0
-56 702 0
-56 703 0
57 -56 -704 0
-57 56 0
-57 704 0
58 -705 -55 0
-58 705 0
-58 55 0
59 -11 -10 0
-59 11 0
-59 10 0
60 -59 -704 0
-60 59 0
-60 704 0
61 -706 -58 0
-61 706 0
-61 58 0
62 -13 -707 0
-62 13 0
-62 707 0
63 -62 -708 0
-63 62 0
-63 708 0
64 -709 -61 0
-64 709 0
-64 61 0
65 -710 -711 0
-65 710 0
-65 711 0
66 -65 -16 0
-66 65 0
-66 16 0
67 -712 -64 0
-67 712 0
-67 64 0
68 -18 -17 0
-68 18 0
-68 17 0
69 -68 -15 0
-69 68 0
-69 15 0
70 -713 -67 0
-70 713 0
-70 67 0
71 -714 -715 0
-71 714 0
-71 715 0
72 -71 -11 0
-72 71 0
-72 11 0
73 -716 -70 0
-73 716 0
-73 70 0
74 -717 -707 0
-74 717 0
-74 707 0
75 -74 -11 0
-75 74 0
-75 11 0
76 -718 -73 0
-76 718 0
-76 73 0
77 -719 -720 0
-77 719 0
-77 720 0
78 -77 -721 0
-78 77 0
-78 721 0
79 -722 -76 0
-79 722 0
-79 76 0
80 -25 -715 0
-80 25 0
-80 715 0
81 -80 -8 0
-81 80 0
-81 8 0
82 -723 -79 0
-82 723 0
-82 79 0
83 -26 -19 0
-83 26 0
-83 19 0
84 -83 -724 0
-84 83 0
-84 724 0
85 -725 -82 0
-85 725 0
-85 82 0
86 -726 -702 0
-86 726 0
-86 702 0
87 -86 -727 0
-87 86 0
-87 727 0
88 -728 -85 0
-88 728 0
-88 85 0
89 -29 -5 0
-89 29 0
-89 5 0
90 -89 -30 0
-90 89 0
-90 30 0
91 -729 -88 0
-91 729 0
-91 88 0
92 -730 -18 0
-92 730 0
-92 18 0
93 -92 -11 0
-93 92 0
-93 11 0
94 -731 -91 0
-94 731 0
-94 91 0
95 -22 -12 0
-95 22 0
-95 12 0
96 -95 -31 0
-96 95 0
-96 31 0
97 -732 -94 0
-97 732 0
-97 94 0
98 -32 -710 0
-98 32 0
-98 710 0
99 -98 -733 0
-99 98 0
-99 733 0
100 -734 -97 0
-100 734 0
-100 97 0
101 -735 -34 0
-101 735 0
-101 34 0
102 -101 -727 0
-102 101 0
-102 727 0
103 -736 -100 0
-103 736 0
-103 100 0
104 -737 -698 0
-104 737 0
-104 698 0
105 -104 -2 0
-105 104 0
-105 2 0
106 -738 -103 0
-106 738 0
-106 103 0
107 -25 -739 0
-107 25 0
-107 739 0
108 -107 -11 0
-108 107 0
-108 11 0
109 -740 -106 0
-109 740 0
-109 106 0
110 -37 -15 0
-110 37 0
-110 15 0
111 -110 -38 0
-111 110 0
-111 38 0
112 -741 -109 0
-112 741 0
-112 109 0
113 -39 -7 0
-113 39 0
-113 7 0
114 -113 -23 0
-114 113 0
-114 23 0
115 -742 -112 0
-115 742 0
-115 112 0
116 -30 -12 0
-116 30 0
-116 12 0
117 -116 -11 0
-117 116 0
-117 11 0
118 -743 -115 0
-118 743 0
-118 115 0
119 -744 -22 0
-119 744 0
-119 22 0
120 -119 -745 0
-120 119 0
-120 745 0
121 -746 -118 0
-121 746 0
-121 118 0
122 -39 -1 0
-122 39 0
-122 1 0
123 -122 -727 0
-123 122 0
-123 727 0
124 -747 -121 0
-124 747 0
-124 121 0
125 -748 -5 0
-125 748 0
-125 5 0
126 -125 -28 0
-126 125 0
-126 28 0
127 -749 -124 0
-127 749 0
-127 124 0
128 -38 -17 0
-128 38 0
-128 17 0
129 -128 -3 0
-129 128 0
-129 3 0
130 -750 -127 0
-130 750 0
-130 127 0
131 -751 -41 0
-131 751 0
-131 41 0
132 -131 -703 0
-132 131 0
-132 703 0
133 -752 -130 0
-133 752 0
-133 130 0
134 -744 -753 0
-134 744 0
-134 753 0
135 -134 -708 0
-135 134 0
-135 708 0
136 -754 -133 0
-136 754 0
-136 133 0
137 -43 -22 0
-137 43 0
-137 22 0
138 -137 -735 0
-138 137 0
-138 735 0
139 -755 -136 0
-139 755 0
-139 136 0
140 -756 -13 0
-140 756 0
-140 13 0
141 -140 -757 0
-141 140 0
-141 757 0
142 -758 -139 0
-142 758 0
-142 139 0
143 -13 -759 0
-143 13 0
-143 759 0
144 -143 -45 0
-144 143 0
-144 45 0
145 -760 -142 0
-145 760 0
-145 142 0
146 -12 -761 0
-146 12 0
-146 761 0
147 -146 -30 0
-147 146 0
-147 30 0
148 -762 -145 0
-148 762 0
-148 145 0
149 -46 -763 0
-149 46 0
-149 763 0
150 -149 -764 0
-150 149 0
-150 764 0
151 -765 -148 0
-151 765 0
-151 148 0
152 -717 -711 0
-152 717 0
-152 711 0
153 -152 -29 0
-153 152 0
-153 29 0
154 -766 -151 0
-154 766 0
-154 151 0
155 -27 -14 0
-155 27 0
-155 14 0
156 -155 -6 0
-156 155 0
-156 6 0
157 -767 -154 0
-157 767 0
-157 154 0
158 -744 -707 0
-158 744 0
-158 707 0
159 -158 -31 0
-159 158 0
-159 31 0
160 -768 -157 0
-160 768 0
-160 157 0
161 -769 -739 0
-161 769 0
-161 739 0
162 -161 -47 0
-162 161 0
-162 47 0
163 -770 -160 0
-163 770 0
-163 160 0
164 -29 -759 0
-164 29 0
-164 759 0
165 -164 -13 0
-165 164 0
-165 13 0
166 -771 -163 0
-166 771 0
-166 163 0
167 -26 -763 0
-167 26 0
-167 763 0
168 -167 -721 0
-168 167 0
-168 721 0
169 -772 -166 0
-169 772 0
-169 166 0
170 -773 -714 0
-170 773 0
-170 714 0
171 -170 -47 0
-171 170 0
-171 47 0
172 -774 -169 0
-172 774 0
-172 169 0
173 -36 -775 0
-173 36 0
-173 775 0
174 -173 -757 0
-174 173 0
-174 757 0
175 -776 -172 0
-175 776 0
-175 172 0
176 -763 -739 0
-176 763 0
-176 739 0
177 -176 -773 0
-177 176 0
-177 773 0
178 -777 -175 0
-178 777 0
-178 175 0
179 -36 -34 0
-179 36 0
-179 34 0
180 -179 -699 0
-180 179 0
-180 699 0
181 -778 -178 0
-181 778 0
-181 178 0
182 -30 -25 0
-182 30 0
-182 25 0
183 -182 -13 0
-183 182 0
-183 13 0
184 -779 -181 0
-184 779 0
-184 181 0
185 -44 -39 0
-185 44 0
-185 39 0
186 -185 -26 0
-186 185 0
-186 26 0
187 -780 -184 0
-187 780 0
-187 184 0
188 -763 -6 0
-188 763 0
-188 6 0
189 -188 -11 0
-189 188 0
-189 11 0
190 -781 -187 0
-190 781 0
-190 187 0
191 -36 -735 0
-191 36 0
-191 735 0
192 -191 -757 0
-192 191 0
-192 757 0
193 -782 -190 0
-193 782 0
-193 190 0
194 -783 -763 0
-194 783 0
-194 763 0
195 -194 -748 0
-195 194 0
-195 748 0
196 -784 -193 0
-196 784 0
-196 193 0
197 -763 -2 0
-197 763 0
-197 2 0
198 -197 -38 0
-198 197 0
-198 38 0
199 -785 -196 0
-199 785 0
-199 196 0
200 -720 -19 0
-200 720 0
-200 19 0
201 -200 -773 0
-201 200 0
-201 773 0
202 -786 -199 0
-202 786 0
-202 199 0
203 -717 -15 0
-203 717 0
-203 15 0
204 -203 -727 0
-204 203 0
-204 727 0
205 -787 -202 0
-205 787 0
-205 202 0
206 -744 -724 0
-206 744 0
-206 724 0
207 -206 -704 0
-207 206 0
-207 704 0
208 -788 -205 0
-208 788 0
-208 205 0
209 -32 -20 0
-209 32 0
-209 20 0
210 -209 -745 0
-210 209 0
-210 745 0
211 -789 -208 0
-211 789 0
-211 208 0
212 -790 -11 0
-212 790 0
-212 11 0
213 -212 -3 0
-213 212 0
-213 3 0
214 -791 -211 0
-214 791 0
-214 211 0
215 -744 -711 0
-215 744 0
-215 711 0
216 -215 -769 0
-216 215 0
-216 769 0
217 -792 -214 0
-217 792 0
-217 214 0
218 -783 -29 0
-218 783 0
-218 29 0
219 -218 -793 0
-219 218 0
-219 793 0
220 -794 -217 0
-220 794 0
-220 217 0
221 -756 -715 0
-221 756 0
-221 715 0
222 -221 -26 0
-222 221 0
-222 26 0
223 -795 -220 0
-223 795 0
-223 220 0
224 -37 -9 0
-224 37 0
-224 9 0
225 -224 -708 0
-225 224 0
-225 708 0
226 -796 -223 0
-226 796 0
-226 223 0
227 -24 -4 0
-227 24 0
-227 4 0
228 -227 -797 0
-228 227 0
-228 797 0
229 -798 -226 0
-229 798 0
-229 226 0
230 -21 -12 0
-230 21 0
-230 12 0
231 -230 -708 0
-231 230 0
-231 708 0
232 -799 -229 0
-232 799 0
-232 229 0
233 -35 -11 0
-233 35 0
-233 11 0
234 -233 -708 0
-234 233 0
-234 708 0
235 -800 -232 0
-235 800 0
-235 232 0
236 -21 -704 0
-236 21 0
-236 704 0
237 -236 -1 0
-237 236 0
-237 1 0
238 -801 -235 0
-238 801 0
-238 235 0
239 -23 -8 0
-239 23 0
-239 8 0
240 -239 -764 0
-240 239 0
-240 764 0
241 -802 -238 0
-241 802 0
-241 238 0
242 -724 -20 0
-242 724 0
-242 20 0
243 -242 -699 0
-243 242 0
-243 699 0
244 -803 -241 0
-244 803 0
-244 241 0
245 -804 -698 0
-245 804 0
-245 698 0
246 -245 -805 0
-246 245 0
-246 805 0
247 -806 -244 0
-247 806 0
-247 244 0
248 -737 -2 0
-248 737 0
-248 2 0
249 -248 -757 0
-249 248 0
-249 757 0
250 -807 -247 0
-250 807 0
-250 247 0
251 -42 -19 0
-251 42 0
-251 19 0
252 -251 -703 0
-252 251 0
-252 703 0
253 -808 -250 0
-253 808 0
-253 250 0
254 -733 -20 0
-254 733 0
-254 20 0
255 -254 -24 0
-255 254 0
-255 24 0
256 -809 -253 0
-256 809 0
-256 253 0
257 -42 -29 0
-257 42 0
-257 29 0
258 -257 -13 0
-258 257 0
-258 13 0
259 -810 -256 0
-259 810 0
-259 256 0
260 -39 -23 0
-260 39 0
-260 23 0
261 -260 -33 0
-261 260 0
-261 33 0
262 -811 -259 0
-262 811 0
-262 259 0
263 -31 -805 0
-263 31 0
-263 805 0
264 -263 -812 0
-264 263 0
-264 812 0
265 -813 -262 0
-265 813 0
-265 262 0
266 -735 -21 0
-266 735 0
-266 21 0
267 -266 -42 0
-267 266 0
-267 42 0
268 -814 -265 0
-268 814 0
-268 265 0
269 -39 -805 0
-269 39 0
-269 805 0
270 -269 -703 0
-270 269 0
-270 703 0
271 -815 -268 0
-271 815 0
-271 268 0
272 -739 -11 0
-272 739 0
-272 11 0
273 -272 -816 0
-273 272 0
-273 816 0
274 -817 -271 0
-274 817 0
-274 271 0
275 -44 -25 0
-275 44 0
-275 25 0
276 -275 -721 0
-276 275 0
-276 721 0
277 -818 -274 0
-277 818 0
-277 274 0
278 -726 -710 0
-278 726 0
-278 710 0
279 -278 -33 0
-279 278 0
-279 33 0
280 -819 -277 0
-280 819 0
-280 277 0
281 -744 -5 0
-281 744 0
-281 5 0
282 -281 -704 0
-282 281 0
-282 704 0
283 -820 -280 0
-283 820 0
-283 280 0
284 -31 -29 0
-284 31 0
-284 29 0
285 -284 -797 0
-285 284 0
-285 797 0
286 -821 -283 0
-286 821 0
-286 283 0
287 -812 -759 0
-287 812 0
-287 759 0
288 -287 -47 0
-288 287 0
-288 47 0
289 -822 -286 0
-289 822 0
-289 286 0
290 -29 -714 0
-290 29 0
-290 714 0
291 -290 -13 0
-291 290 0
-291 13 0
292 -823 -289 0
-292 823 0
-292 289 0
293 -42 -40 0
-293 42 0
-293 40 0
294 -293 -23 0
-294 293 0
-294 23 0
295 -824 -292 0
-295 824 0
-295 292 0
296 -773 -25 0
-296 773 0
-296 25 0
297 -296 -812 0
-297 296 0
-297 812 0
298 -825 -295 0
-298 825 0
-298 295 0
299 -15 -10 0
-299 15 0
-299 10 0
300 -299 -31 0
-300 299 0
-300 31 0
301 -826 -298 0
-301 826 0
-301 298 0
302 -46 -13 0
-302 46 0
-302 13 0
303 -302 -16 0
-303 302 0
-303 16 0
304 -827 -301 0
-304 827 0
-304 301 0
305 -773 -41 0
-305 773 0
-305 41 0
306 -305 -797 0
-306 305 0
-306 797 0
307 -828 -304 0
-307 828 0
-307 304 0
308 -763 -721 0
-308 763 0
-308 721 0
309 -308 -28 0
-309 308 0
-309 28 0
310 -829 -307 0
-310 829 0
-310 307 0
311 -26 -20 0
-311 26 0
-311 20 0
312 -311 -727 0
-312 311 0
-312 727 0
313 -830 -310 0
-313 830 0
-313 310 0
314 -773 -730 0
-314 773 0
-314 730 0
315 -314 -16 0
-315 314 0
-315 16 0
316 -831 -313 0
-316 831 0
-316 313 0
317 -773 -812 0
-317 773 0
-317 812 0
318 -317 -9 0
-318 317 0
-318 9 0
319 -832 -316 0
-319 832 0
-319 316 0
320 -30 -17 0
-320 30 0
-320 17 0
321 -320 -9 0
-321 320 0
-321 9 0
322 -833 -319 0
-322 833 0
-322 319 0
323 -30 -23 0
-323 30 0
-323 23 0
324 -323 -47 0
-324 323 0
-324 47 0
325 -834 -322 0
-325 834 0
-325 322 0
326 -41 -20 0
-326 41 0
-326 20 0
327 -326 -45 0
-327 326 0
-327 45 0
328 -835 -325 0
-328 835 0
-328 325 0
329 -804 -40 0
-329 804 0
-329 40 0
330 -329 -805 0
-330 329 0
-330 805 0
331 -836 -328 0
-331 836 0
-331 328 0
332 -19 -17 0
-332 19 0
-332 17 0
333 -332 -719 0
-333 332 0
-333 719 0
334 -837 -331 0
-334 837 0
-334 331 0
335 -44 -26 0
-335 44 0
-335 26 0
336 -335 -49 0
-336 335 0
-336 49 0
337 -838 -334 0
-337 838 0
-337 334 0
338 -25 -714 0
-338 25 0
-338 714 0
339 -338 -33 0
-339 338 0
-339 33 0
340 -839 -337 0
-340 839 0
-340 337 0
341 -41 -761 0
-341 41 0
-341 761 0
342 -341 -751 0
-342 341 0
-342 751 0
343 -840 -340 0
-343 840 0
-343 340 0
344 -841 -16 0
-344 841 0
-344 16 0
345 -344 -842 0
-345 344 0
-345 842 0
346 -843 -343 0
-346 843 0
-346 343 0
347 -43 -751 0
-347 43 0
-347 751 0
348 -347 -707 0
-348 347 0
-348 707 0
349 -844 -346 0
-349 844 0
-349 346 0
350 -719 -759 0
-350 719 0
-350 759 0
351 -350 -757 0
-351 350 0
-351 757 0
352 -845 -349 0
-352 845 0
-352 349 0
353 -714 -19 0
-353 714 0
-353 19 0
354 -353 -31 0
-354 353 0
-354 31 0
355 -846 -352 0
-355 846 0
-355 352 0
356 -751 -37 0
-356 751 0
-356 37 0
357 -356 -33 0
-357 356 0
-357 33 0
358 -847 -355 0
-358 847 0
-358 355 0
359 -27 -22 0
-359 27 0
-359 22 0
360 -359 -30 0
-360 359 0
-360 30 0
361 -848 -358 0
-361 848 0
-361 358 0
362 -33 -759 0
-362 33 0
-362 759 0
363 -362 -1 0
-363 362 0
-363 1 0
364 -849 -361 0
-364 849 0
-364 361 0
365 -320 -721 0
-365 320 0
-365 721 0
366 -850 -364 0
-366 850 0
-366 364 0
367 -44 -739 0
-367 44 0
-367 739 0
368 -367 -46 0
-368 367 0
-368 46 0
369 -851 -366 0
-369 851 0
-369 366 0
370 -726 -9 0
-370 726 0
-370 9 0
371 -370 -45 0
-371 370 0
-371 45 0
372 -852 -369 0
-372 852 0
-372 369 0
373 -745 -5 0
-373 745 0
-373 5 0
374 -373 -45 0
-374 373 0
-374 45 0
375 -853 -372 0
-375 853 0
-375 372 0
376 -22 -698 0
-376 22 0
-376 698 0
377 -376 -17 0
-377 376 0
-377 17 0
378 -854 -375 0
-378 854 0
-378 375 0
379 -13 -699 0
-379 13 0
-379 699 0
380 -379 -38 0
-380 379 0
-380 38 0
381 -855 -378 0
-381 855 0
-381 378 0
382 -759 -698 0
-382 759 0
-382 698 0
383 -382 -730 0
-383 382 0
-383 730 0
384 -856 -381 0
-384 856 0
-384 381 0
385 -33 -14 0
-385 33 0
-385 14 0
386 -385 -49 0
-386 385 0
-386 49 0
387 -857 -384 0
-387 857 0
-387 384 0
388 -23 -13 0
-388 23 0
-388 13 0
389 -388 -3 0
-389 388 0
-389 3 0
390 -858 -387 0
-390 858 0
-390 387 0
391 -719 -739 0
-391 719 0
-391 739 0
392 -391 -841 0
-392 391 0
-392 841 0
393 -859 -390 0
-393 859 0
-393 390 0
394 -759 -8 0
-394 759 0
-394 8 0
395 -394 -2 0
-395 394 0
-395 2 0
396 -860 -393 0
-396 860 0
-396 393 0
397 -37 -720 0
-397 37 0
-397 720 0
398 -397 -9 0
-398 397 0
-398 9 0
399 -861 -396 0
-399 861 0
-399 396 0
400 -13 -748 0
-400 13 0
-400 748 0
401 -400 -16 0
-401 400 0
-401 16 0
402 -862 -399 0
-402 862 0
-402 399 0
403 -739 -14 0
-403 739 0
-403 14 0
404 -403 -699 0
-404 403 0
-404 699 0
405 -863 -402 0
-405 863 0
-405 402 0
406 -36 -32 0
-406 36 0
-406 32 0
407 -406 -7 0
-407 406 0
-407 7 0
408 -864 -405 0
-408 864 0
-408 405 0
409 -865 -12 0
-409 865 0
-409 12 0
410 -409 -47 0
-410 409 0
-410 47 0
411 -866 -408 0
-411 866 0
-411 408 0
412 -865 -790 0
-412 865 0
-412 790 0
413 -412 -719 0
-413 412 0
-413 719 0
414 -867 -411 0
-414 867 0
-414 411 0
415 -865 -720 0
-415 865 0
-415 720 0
416 -415 -47 0
-416 415 0
-416 47 0
417 -868 -414 0
-417 868 0
-417 414 0
418 -44 -715 0
-418 44 0
-418 715 0
419 -418 -733 0
-419 418 0
-419 733 0
420 -869 -417 0
-420 869 0
-420 417 0
421 -49 -12 0
-421 49 0
-421 12 0
422 -421 -38 0
-422 421 0
-422 38 0
423 -870 -420 0
-423 870 0
-423 420 0
424 -751 -19 0
-424 751 0
-424 19 0
425 -424 -699 0
-425 424 0
-425 699 0
426 -871 -423 0
-426 871 0
-426 423 0
427 -37 -26 0
-427 37 0
-427 26 0
428 -427 -724 0
-428 427 0
-428 724 0
429 -872 -426 0
-429 872 0
-429 426 0
430 -873 -26 0
-430 873 0
-430 26 0
431 -430 -745 0
-431 430 0
-431 745 0
432 -874 -429 0
-432 874 0
-432 429 0
433 -18 -816 0
-433 18 0
-433 816 0
434 -433 -721 0
-434 433 0
-434 721 0
435 -875 -432 0
-435 875 0
-435 432 0
436 -41 -717 0
-436 41 0
-436 717 0
437 -436 -20 0
-437 436 0
-437 20 0
438 -876 -435 0
-438 876 0
-438 435 0
439 -756 -698 0
-439 756 0
-439 698 0
440 -439 -16 0
-440 439 0
-440 16 0
441 -877 -438 0
-441 877 0
-441 438 0
442 -30 -707 0
-442 30 0
-442 707 0
443 -442 -9 0
-443 442 0
-443 9 0
444 -878 -441 0
-444 878 0
-444 441 0
445 -865 -698 0
-445 865 0
-445 698 0
446 -445 -9 0
-446 445 0
-446 9 0
447 -879 -444 0
-447 879 0
-447 444 0
448 -773 -737 0
-448 773 0
-448 737 0
449 -448 -13 0
-449 448 0
-449 13 0
450 -880 -447 0
-450 880 0
-450 447 0
451 -721 -15 0
-451 721 0
-451 15 0
452 -451 -841 0
-452 451 0
-452 841 0
453 -881 -450 0
-453 881 0
-453 450 0
454 -30 -20 0
-454 30 0
-454 20 0
455 -454 -38 0
-455 454 0
-455 38 0
456 -882 -453 0
-456 882 0
-456 453 0
457 -735 -733 0
-457 735 0
-457 733 0
458 -457 -8 0
-458 457 0
-458 8 0
459 -883 -456 0
-459 883 0
-459 456 0
460 -33 -719 0
-460 33 0
-460 719 0
461 -460 -31 0
-461 460 0
-461 31 0
462 -884 -459 0
-462 884 0
-462 459 0
463 -26 -699 0
-463 26 0
-463 699 0
464 -463 -842 0
-464 463 0
-464 842 0
465 -885 -462 0
-465 885 0
-465 462 0
466 -790 -720 0
-466 790 0
-466 720 0
467 -466 -15 0
-467 466 0
-467 15 0
468 -886 -465 0
-468 886 0
-468 465 0
469 -812 -5 0
-469 812 0
-469 5 0
470 -469 -45 0
-470 469 0
-470 45 0
471 -887 -468 0
-471 887 0
-471 468 0
472 -756 -761 0
-472 756 0
-472 761 0
473 -472 -724 0
-473 472 0
-473 724 0
474 -888 -471 0
-474 888 0
-474 471 0
475 -49 -22 0
-475 49 0
-475 22 0
476 -475 -797 0
-476 475 0
-476 797 0
477 -889 -474 0
-477 889 0
-477 474 0
478 -751 -35 0
-478 751 0
-478 35 0
479 -478 -790 0
-479 478 0
-479 790 0
480 -890 -477 0
-480 890 0
-480 477 0
481 -804 -39 0
-481 804 0
-481 39 0
482 -481 -23 0
-482 481 0
-482 23 0
483 -891 -480 0
-483 891 0
-483 480 0
484 -751 -748 0
-484 751 0
-484 748 0
485 -484 -793 0
-485 484 0
-485 793 0
486 -892 -483 0
-486 892 0
-486 483 0
487 -756 -737 0
-487 756 0
-487 737 0
488 -487 -708 0
-488 487 0
-488 708 0
489 -893 -486 0
-489 893 0
-489 486 0
490 -42 -16 0
-490 42 0
-490 16 0
491 -490 -797 0
-491 490 0
-491 797 0
492 -894 -489 0
-492 894 0
-492 489 0
493 -19 -704 0
-493 19 0
-493 704 0
494 -493 -49 0
-494 493 0
-494 49 0
495 -895 -492 0
-495 895 0
-495 492 0
496 -42 -720 0
-496 42 0
-496 720 0
497 -496 -47 0
-497 496 0
-497 47 0
498 -896 -495 0
-498 896 0
-498 495 0
499 -50 -699 0
-499 50 0
-499 699 0
500 -499 -793 0
-500 499 0
-500 793 0
501 -897 -498 0
-501 897 0
-501 498 0
502 -48 -12 0
-502 48 0
-502 12 0
503 -502 -13 0
-503 502 0
-503 13 0
504 -898 -501 0
-504 898 0
-504 501 0
505 -40 -8 0
-505 40 0
-505 8 0
506 -505 -769 0
-506 505 0
-506 769 0
507 -899 -504 0
-507 899 0
-507 504 0
508 -19 -711 0
-508 19 0
-508 711 0
509 -508 -36 0
-509 508 0
-509 36 0
510 -900 -507 0
-510 900 0
-510 507 0
511 -49 -841 0
-511 49 0
-511 841 0
512 -511 -45 0
-512 511 0
-512 45 0
513 -901 -510 0
-513 901 0
-513 510 0
514 -805 -13 0
-514 805 0
-514 13 0
515 -514 -3 0
-515 514 0
-515 3 0
516 -902 -513 0
-516 902 0
-516 513 0
517 -737 -33 0
-517 737 0
-517 33 0
518 -517 -769 0
-518 517 0
-518 769 0
519 -903 -516 0
-519 903 0
-519 516 0
520 -904 -714 0
-520 904 0
-520 714 0
521 -520 -3 0
-521 520 0
-521 3 0
522 -905 -519 0
-522 905 0
-522 519 0
523 -904 -724 0
-523 904 0
-523 724 0
524 -523 -721 0
-524 523 0
-524 721 0
525 -906 -522 0
-525 906 0
-525 522 0
526 -753 -759 0
-526 753 0
-526 759 0
527 -526 -751 0
-527 526 0
-527 751 0
528 -907 -525 0
-528 907 0
-528 525 0
529 -744 -761 0
-529 744 0
-529 761 0
530 -529 -773 0
-530 529 0
-530 773 0
531 -908 -528 0
-531 908 0
-531 528 0
532 -22 -4 0
-532 22 0
-532 4 0
533 -532 -717 0
-533 532 0
-533 717 0
534 -909 -531 0
-534 909 0
-534 531 0
535 -715 -726 0
-535 715 0
-535 726 0
536 -535 -793 0
-536 535 0
-536 793 0
537 -910 -534 0
-537 910 0
-537 534 0
538 -36 -715 0
-538 36 0
-538 715 0
539 -538 -769 0
-539 538 0
-539 769 0
540 -911 -537 0
-540 911 0
-540 537 0
541 -744 -21 0
-541 744 0
-541 21 0
542 -541 -793 0
-542 541 0
-542 793 0
543 -912 -540 0
-543 912 0
-543 540 0
544 -39 -719 0
-544 39 0
-544 719 0
545 -544 -1 0
-545 544 0
-545 1 0
546 -913 -543 0
-546 913 0
-546 543 0
547 -751 -14 0
-547 751 0
-547 14 0
548 -547 -710 0
-548 547 0
-548 710 0
549 -914 -546 0
-549 914 0
-549 546 0
550 -48 -804 0
-550 48 0
-550 804 0
551 -550 -45 0
-551 550 0
-551 45 0
552 -915 -549 0
-552 915 0
-552 549 0
553 -730 -4 0
-553 730 0
-553 4 0
554 -553 -719 0
-554 553 0
-554 719 0
555 -916 -552 0
-555 916 0
-555 552 0
556 -12 -708 0
-556 12 0
-556 708 0
557 -556 -757 0
-557 556 0
-557 757 0
558 -917 -555 0
-558 917 0
-558 555 0
559 -122 -764 0
-559 122 0
-559 764 0
560 -918 -558 0
-560 918 0
-560 558 0
561 -254 -38 0
-561 254 0
-561 38 0
562 -919 -560 0
-562 919 0
-562 560 0
563 -34 -14 0
-563 34 0
-563 14 0
564 -563 -721 0
-564 563 0
-564 721 0
565 -920 -562 0
-565 920 0
-565 562 0
566 -751 -733 0
-566 751 0
-566 733 0
567 -566 -2 0
-567 566 0
-567 2 0
568 -921 -565 0
-568 921 0
-568 565 0
569 -726 -739 0
-569 726 0
-569 739 0
570 -569 -15 0
-570 569 0
-570 15 0
571 -922 -568 0
-571 922 0
-571 568 0
572 -20 -707 0
-572 20 0
-572 707 0
573 -572 -38 0
-573 572 0
-573 38 0
574 -923 -571 0
-574 923 0
-574 571 0
575 -12 -703 0
-575 12 0
-575 703 0
576 -575 -2 0
-576 575 0
-576 2 0
577 -924 -574 0
-577 924 0
-577 574 0
578 -804 -27 0
-578 804 0
-578 27 0
579 -578 -15 0
-579 578 0
-579 15 0
580 -925 -577 0
-580 925 0
-580 577 0
581 -41 -904 0
-581 41 0
-581 904 0
582 -581 -805 0
-582 581 0
-582 805 0
583 -926 -580 0
-583 926 0
-583 580 0
584 -715 -1 0
-584 715 0
-584 1 0
585 -584 -727 0
-585 584 0
-585 727 0
586 -927 -583 0
-586 927 0
-586 583 0
587 -707 -8 0
-587 707 0
-587 8 0
588 -587 -46 0
-588 587 0
-588 46 0
589 -928 -586 0
-589 928 0
-589 586 0
590 -790 -25 0
-590 790 0
-590 25 0
591 -590 -764 0
-591 590 0
-591 764 0
592 -929 -589 0
-592 929 0
-592 589 0
593 -32 -30 0
-593 32 0
-593 30 0
594 -593 -797 0
-594 593 0
-594 797 0
595 -930 -592 0
-595 930 0
-595 592 0
596 -43 -753 0
-596 43 0
-596 753 0
597 -596 -842 0
-597 596 0
-597 842 0
598 -931 -595 0
-598 931 0
-598 595 0
599 -737 -23 0
-599 737 0
-599 23 0
600 -599 -769 0
-600 599 0
-600 769 0
601 -932 -598 0
-601 932 0
-601 598 0
602 -13 -12 0
-602 13 0
-602 12 0
603 -602 -721 0
-603 602 0
-603 721 0
604 -933 -601 0
-604 933 0
-604 601 0
605 -21 -761 0
-605 21 0
-605 761 0
606 -605 -727 0
-606 605 0
-606 727 0
607 -934 -604 0
-607 934 0
-607 604 0
608 -41 -737 0
-608 41 0
-608 737 0
609 -608 -797 0
-609 608 0
-609 797 0
610 -935 -607 0
-610 935 0
-610 607 0
611 -773 -804 0
-611 773 0
-611 804 0
612 -611 -20 0
-612 611 0
-612 20 0
613 -936 -610 0
-613 936 0
-613 610 0
614 -28 -21 0
-614 28 0
-614 21 0
615 -614 -842 0
-615 614 0
-615 842 0
616 -937 -613 0
-616 937 0
-616 613 0
617 -724 -805 0
-617 724 0
-617 805 0
618 -617 -733 0
-618 617 0
-618 733 0
619 -938 -616 0
-619 938 0
-619 616 0
620 -36 -710 0
-620 36 0
-620 710 0
621 -620 -842 0
-621 620 0
-621 842 0
622 -939 -619 0
-622 939 0
-622 619 0
623 -29 -26 0
-623 29 0
-623 26 0
624 -623 -816 0
-624 623 0
-624 816 0
625 -940 -622 0
-625 940 0
-625 622 0
626 -42 -707 0
-626 42 0
-626 707 0
627 -626 -721 0
-627 626 0
-627 721 0
628 -941 -625 0
-628 941 0
-628 625 0
629 -173 -11 0
-629 173 0
-629 11 0
630 -942 -628 0
-630 942 0
-630 628 0
631 -775 -759 0
-631 775 0
-631 759 0
632 -631 -842 0
-632 631 0
-632 842 0
633 -943 -630 0
-633 943 0
-633 630 0
634 -724 -720 0
-634 724 0
-634 720 0
635 -634 -816 0
-635 634 0
-635 816 0
636 -944 -633 0
-636 944 0
-636 633 0
637 -769 -710 0
-637 769 0
-637 710 0
638 -637 -49 0
-638 637 0
-638 49 0
639 -945 -636 0
-639 945 0
-639 636 0
640 -36 -698 0
-640 36 0
-640 698 0
641 -640 -23 0
-641 640 0
-641 23 0
642 -946 -639 0
-642 946 0
-642 639 0
643 -19 -739 0
-643 19 0
-643 739 0
644 -643 -707 0
-644 643 0
-644 707 0
645 -947 -642 0
-645 947 0
-645 642 0
646 -37 -14 0
-646 37 0
-646 14 0
647 -646 -733 0
-647 646 0
-647 733 0
648 -948 -645 0
-648 948 0
-648 645 0
649 -40 -698 0
-649 40 0
-649 698 0
650 -649 -20 0
-650 649 0
-650 20 0
651 -949 -648 0
-651 949 0
-651 648 0
652 -350 -38 0
-652 350 0
-652 38 0
653 -950 -651 0
-653 950 0
-653 651 0
654 -783 -711 0
-654 783 0
-654 711 0
655 -654 -29 0
-655 654 0
-655 29 0
656 -951 -653 0
-656 951 0
-656 653 0
657 -6 -4 0
-657 6 0
-657 4 0
658 -657 -721 0
-658 657 0
-658 721 0
659 -952 -656 0
-659 952 0
-659 656 0
660 -783 -25 0
-660 783 0
-660 25 0
661 -660 -48 0
-661 660 0
-661 48 0
662 -953 -659 0
-662 953 0
-662 659 0
663 -714 -7 0
-663 714 0
-663 7 0
664 -663 -841 0
-664 663 0
-664 841 0
665 -954 -662 0
-665 954 0
-665 662 0
666 -865 -733 0
-666 865 0
-666 733 0
667 -666 -797 0
-667 666 0
-667 797 0
668 -955 -665 0
-668 955 0
-668 665 0
669 -790 -20 0
-669 790 0
-669 20 0
670 -669 -726 0
-670 669 0
-670 726 0
671 -956 -668 0
-671 956 0
-671 668 0
672 -39 -6 0
-672 39 0
-672 6 0
673 -672 -842 0
-673 672 0
-673 842 0
674 -957 -671 0
-674 957 0
-674 671 0
675 -726 -5 0
-675 726 0
-675 5 0
676 -675 -745 0
-676 675 0
-676 745 0
677 -958 -674 0
-677 958 0
-677 674 0
678 -751 -17 0
-678 751 0
-678 17 0
679 -678 -707 0
-679 678 0
-679 707 0
680 -959 -677 0
-680 959 0
-680 677 0
681 -751 -32 0
-681 751 0
-681 32 0
682 -681 -726 0
-682 681 0
-682 726 0
683 -960 -680 0
-683 960 0
-683 680 0
684 -730 -790 0
-684 730 0
-684 790 0
685 -684 -812 0
-685 684 0
-685 812 0
686 -961 -683 0
-686 961 0
-686 683 0
687 -581 -724 0
-687 581 0
-687 724 0
688 -962 -686 0
-688 962 0
-688 686 0
689 -715 -739 0
-689 715 0
-689 739 0
690 -689 -36 0
-690 689 0
-690 36 0
691 -963 -688 0
-691 963 0
-691 688 0
692 -37 -12 0
-692 37 0
-692 12 0
693 -692 -6 0
-693 692 0
-693 6 0
694 -964 -691 0
-694 964 0
-694 691 0
695 -39 -739 0
-695 39 0
-695 739 0
696 -695 -717 0
-696 695 0
-696 717 0
697 -965 -694 0
-697 965 0
-697 694 0
-698 -4 0
698 4 0
-699 -6 0
699 6 0
-700 -54 0
700 54 0
-701 -52 0
701 52 0
-702 -8 0
702 8 0
-703 -7 0
703 7 0
-704 -9 0
704 9 0
-705 -57 0
705 57 0
-706 -60 0
706 60 0
-707 -12 0
707 12 0
-708 -1 0
708 1 0
-709 -63 0
709 63 0
-710 -15 0
710 15 0
-711 -14 0
711 14 0
-712 -66 0
712 66 0
-713 -69 0
713 69 0
-714 -20 0
714 20 0
-715 -19 0
715 19 0
-716 -72 0
716 72 0
-717 -21 0
717 21 0
-718 -75 0
718 75 0
-719 -23 0
719 23 0
-720 -22 0
720 22 0
-721 -24 0
721 24 0
-722 -78 0
722 78 0
-723 -81 0
723 81 0
-724 -27 0
724 27 0
-725 -84 0
725 84 0
-726 -18 0
726 18 0
-727 -28 0
727 28 0
-728 -87 0
728 87 0
-729 -90 0
729 90 0
-730 -30 0
730 30 0
-731 -93 0
731 93 0
-732 -96 0
732 96 0
-733 -33 0
733 33 0
-734 -99 0
734 99 0
-735 -35 0
735 35 0
-736 -102 0
736 102 0
-737 -36 0
737 36 0
-738 -105 0
738 105 0
-739 -17 0
739 17 0
-740 -108 0
740 108 0
-741 -111 0
741 111 0
-742 -114 0
742 114 0
-743 -117 0
743 117 0
-744 -40 0
744 40 0
-745 -31 0
745 31 0
-746 -120 0
746 120 0
-747 -123 0
747 123 0
-748 -11 0
748 11 0
-749 -126 0
749 126 0
-750 -129 0
750 129 0
-751 -42 0
751 42 0
-752 -132 0
752 132 0
-753 -37 0
753 37 0
-754 -135 0
754 135 0
-755 -138 0
755 138 0
-756 -44 0
756 44 0
-757 -38 0
757 38 0
-758 -141 0
758 141 0
-759 -10 0
759 10 0
-760 -144 0
760 144 0
-761 -5 0
761 5 0
-762 -147 0
762 147 0
-763 -25 0
763 25 0
-764 -3 0
764 3 0
-765 -150 0
765 150 0
-766 -153 0
766 153 0
-767 -156 0
767 156 0
-768 -159 0
768 159 0
-769 -46 0
769 46 0
-770 -162 0
770 162 0
-771 -165 0
771 165 0
-772 -168 0
772 168 0
-773 -48 0
773 48 0
-774 -171 0
774 171 0
-775 -34 0
775 34 0
-776 -174 0
776 174 0
-777 -177 0
777 177 0
-778 -180 0
778 180 0
-779 -183 0
779 183 0
-780 -186 0
780 186 0
-781 -189 0
781 189 0
-782 -192 0
782 192 0
-783 -32 0
783 32 0
-784 -195 0
784 195 0
-785 -198 0
785 198 0
-786 -201 0
786 201 0
-787 -204 0
787 204 0
-788 -207 0
788 207 0
-789 -210 0
789 210 0
-790 -29 0
790 29 0
-791 -213 0
791 213 0
-792 -216 0
792 216 0
-793 -49 0
793 49 0
-794 -219 0
794 219 0
-795 -222 0
795 222 0
-796 -225 0
796 225 0
-797 -2 0
797 2 0
-798 -228 0
798 228 0
-799 -231 0
799 231 0
-800 -234 0
800 234 0
-801 -237 0
801 237 0
-802 -240 0
802 240 0
-803 -243 0
803 243 0
-804 -43 0
804 43 0
-805 -26 0
805 26 0
-806 -246 0
806 246 0
-807 -249 0
807 249 0
-808 -252 0
808 252 0
-809 -255 0
809 255 0
-810 -258 0
810 258 0
-811 -261 0
811 261 0
-812 -16 0
812 16 0
-813 -264 0
813 264 0
-814 -267 0
814 267 0
-815 -270 0
815 270 0
-816 -13 0
816 13 0
-817 -273 0
817 273 0
-818 -276 0
818 276 0
-819 -279 0
819 279 0
-820 -282 0
820 282 0
-821 -285 0
821 285 0
-822 -288 0
822 288 0
-823 -291 0
823 291 0
-824 -294 0
824 294 0
-825 -297 0
825 297 0
-826 -300 0
826 300 0
-827 -303 0
827 303 0
-828 -306 0
828 306 0
-829 -309 0
829 309 0
-830 -312 0
830 312 0
-831 -315 0
831 315 0
-832 -318 0
832 318 0
-833 -321 0
833 321 0
-834 -324 0
834 324 0
-835 -327 0
835 327 0
-836 -330 0
836 330 0
-837 -333 0
837 333 0
-838 -336 0
838 336 0
-839 -339 0
839 339 0
-840 -342 0
840 342 0
-841 -47 0
841 47 0
-842 -45 0
842 45 0
-843 -345 0
843 345 0
-844 -348 0
844 348 0
-845 -351 0
845 351 0
-846 -354 0
846 354 0
-847 -357 0
847 357 0
-848 -360 0
848 360 0
-849 -363 0
849 363 0
-850 -365 0
850 365 0
-851 -368 0
851 368 0
-852 -371 0
852 371 0
-853 -374 0
853 374 0
-854 -377 0
854 377 0
-855 -380 0
855 380 0
-856 -383 0
856 383 0
-857 -386 0
857 386 0
-858 -389 0
858 389 0
-859 -392 0
859 392 0
-860 -395 0
860 395 0
-861 -398 0
861 398 0
-862 -401 0
862 401 0
-863 -404 0
863 404 0
-864 -407 0
864 407 0
-865 -50 0
865 50 0
-866 -410 0
866 410 0
-867 -413 0
867 413 0
-868 -416 0
868 416 0
-869 -419 0
869 419 0
-870 -422 0
870 422 0
-871 -425 0
871 425 0
-872 -428 0
872 428 0
-873 -41 0
873 41 0
-874 -431 0
874 431 0
-875 -434 0
875 434 0
-876 -437 0
876 437 0
-877 -440 0
877 440 0
-878 -443 0
878 443 0
-879 -446 0
879 446 0
-880 -449 0
880 449 0
-881 -452 0
881 452 0
-882 -455 0
882 455 0
-883 -458 0
883 458 0
-884 -461 0
884 461 0
-885 -464 0
885 464 0
-886 -467 0
886 467 0
-887 -470 0
887 470 0
-888 -473 0
888 473 0
-889 -476 0
889 476 0
-890 -479 0
890 479 0
-891 -482 0
891 482 0
-892 -485 0
892 485 0
-893 -488 0
893 488 0
-894 -491 0
894 491 0
-895 -494 0
895 494 0
-896 -497 0
896 497 0
-897 -500 0
897 500 0
-898 -503 0
898 503 0
-899 -506 0
899 506 0
-900 -509 0
900 509 0
-901 -512 0
901 512 0
-902 -515 0
902 515 0
-903 -518 0
903 518 0
-904 -39 0
904 39 0
-905 -521 0
905 521 0
-906 -524 0
906 524 0
-907 -527 0
907 527 0
-908 -530 0
908 530 0
-909 -533 0
909 533 0
-910 -536 0
910 536 0
-911 -539 0
911 539 0
-912 -542 0
912 542 0
-913 -545 0
913 545 0
-914 -548 0
914 548 0
-915 -551 0
915 551 0
-916 -554 0
916 554 0
-917 -557 0
917 557 0
-918 -559 0
918 559 0
-919 -561 0
919 561 0
-920 -564 0
920 564 0
-921 -567 0
921 567 0
-922 -570 0
922 570 0
-923 -573 0
923 573 0
-924 -576 0
924 576 0
-925 -579 0
925 579 0
-926 -582 0
926 582 0
-927 -585 0
927 585 0
-928 -588 0
928 588 0
-929 -591 0
929 591 0
-930 -594 0
930 594 0
-931 -597 0
931 597 0
-932 -600 0
932 600 0
-933 -603 0
933 603 0
-934 -606 0
934 606 0
-935 -609 0
935 609 0
-936 -612 0
936 612 0
-937 -615 0
937 615 0
-938 -618 0
938 618 0
-939 -621 0
939 621 0
-940 -624 0
940 624 0
-941 -627 0
941 627 0
-942 -629 0
942 629 0
-943 -632 0
943 632 0
-944 -635 0
944 635 0
-945 -638 0
945 638 0
-946 -641 0
946 641 0
-947 -644 0
947 644 0
-948 -647 0
948 647 0
-949 -650 0
949 650 0
-950 -652 0
950 652 0
-951 -655 0
951 655 0
-952 -658 0
952 658 0
-953 -661 0
953 661 0
-954 -664 0
954 664 0
-955 -667 0
955 667 0
-956 -670 0
956 670 0
-957 -673 0
957 673 0
-958 -676 0
958 676 0
-959 -679 0
959 679 0
-960 -682 0
960 682 0
-961 -685 0
961 685 0
-962 -687 0
962 687 0
-963 -690 0
963 690 0
-964 -693 0
964 693 0
-965 -696 0
965 696 0
697 0
